; benchmark generated from python API
(set-info :status unknown)
(declare-fun S_4 () Real)
(declare-fun C () Real)
(declare-fun S_5 () Real)
(declare-fun L_1 () Real)
(declare-fun A_1 () Real)
(declare-fun S_3 () Real)
(declare-fun L_2 () Real)
(declare-fun A_2 () Real)
(declare-fun L_3 () Real)
(declare-fun A_3 () Real)
(declare-fun S_2 () Real)
(declare-fun L_4 () Real)
(declare-fun A_4 () Real)
(declare-fun L_5 () Real)
(declare-fun A_5 () Real)
(declare-fun S_1 () Real)
(declare-fun L_0 () Real)
(declare-fun S_0 () Real)
(declare-fun A_0 () Real)
(declare-fun B () Real)
(assert
 (let (($x39 (>= L_0 0.0)))
 (let (($x842 (>= C 5.0)))
 (let (($x666 (>= B 5.0)))
 (let (($x23206 (<= (+ (* (- 1.0) S_5) (* 4.0 C) S_0) 0.0)))
 (let (($x5319 (<= (+ A_4 (* (- 1.0) S_5) (* (- 1.0) L_4)) 0.0)))
 (let (($x1983 (<= (+ A_2 (* (- 1.0) A_1) (* (- 1.0) L_2) (* (- 1.0) C) L_1) 0.0)))
 (let (($x1926 (not $x1983)))
 (let (($x1914 (<= (+ A_2 (* (- 1.0) S_5) (* (- 1.0) L_2) (* 2.0 C)) 0.0)))
 (let (($x1309 (<= (+ A_3 (* (- 1.0) S_5) (* (- 1.0) L_3) C) 0.0)))
 (let (($x48303 (<= 0.0 (+ (* (- 1.0) A_4) A_3 (* (- 1.0) L_3) C L_4))))
 (let (($x48316 (not $x48303)))
 (let (($x3695 (<= (+ A_1 (* (- 1.0) L_1) (* (- 1.0) S_5) (* 3.0 C)) 0.0)))
 (let (($x48299 (or $x1309 $x1914 $x5319 (<= (+ (* (- 1.0) S_5) (* 3.0 C) S_1) 0.0))))
 (let (($x48399 (<= 0.0 (+ (* (- 1.0) A_3) A_2 (* (- 1.0) L_2) C L_3))))
 (let (($x48398 (not $x48399)))
 (let (($x47903 (or $x1309 $x5319 (<= (+ (* (- 1.0) S_5) (* 2.0 C) S_2) 0.0))))
 (let (($x48548 (<= 0.0 (+ (* (- 1.0) A_3) A_1 (* (- 1.0) L_1) (* 2.0 C) L_3))))
 (let ((?x601 (* (- 1.0) B)))
 (let ((?x532 (* (- 1.0) L_5)))
 (let ((?x1198 (* (- 1.0) S_0)))
 (let ((?x17499 (* (- 6.0) C)))
 (let (($x17540 (<= (+ A_5 (* (- 1.0) A_0) (* (- 5.0) C) ?x532 ?x601 L_0) 0.0)))
 (let (($x50979 (<= 0.0 (+ A_5 (* (- 1.0) A_2) (* (- 3.0) C) L_2 ?x532 ?x601))))
 (let (($x50975 (<= 0.0 (+ A_5 (* (- 1.0) A_3) (* (- 2.0) C) L_3 ?x532 ?x601))))
 (let (($x50972 (<= 0.0 (+ (* (- 1.0) A_4) A_5 (* (- 1.0) C) L_4 ?x532 ?x601))))
 (let (($x96 (= L_5 L_4)))
 (let (($x64791 (or $x96 (<= (+ (* (- 1.0) A_5) (* 4.0 C) S_1 L_5 B) 0.0) $x50972 $x50975 $x50979)))
 (let (($x50969 (<= 0.0 (+ A_5 (* (- 1.0) A_1) (* (- 4.0) C) L_1 ?x532 ?x601))))
 (let (($x114327 (or $x96 (<= (+ (* (- 1.0) A_5) (* 5.0 C) S_0 L_5 B) 0.0) $x50969 $x50972 $x50975 $x50979)))
 (let ((?x1074 (* 4.0 C)))
 (let ((?x584 (* (- 1.0) L_1)))
 (let ((?x448 (* (- 1.0) A_5)))
 (let (($x7407 (= (+ ?x448 A_2 (* (- 1.0) L_2) (* 3.0 C) L_5 B) 0.0)))
 (let (($x50973 (not $x50972)))
 (let (($x48196 (<= 0.0 (+ (* (- 1.0) A_4) A_2 (* (- 1.0) L_2) (* 2.0 C) L_4))))
 (let (($x114217 (or $x96 (<= (+ ?x448 (* 3.0 C) S_2 L_5 B) 0.0) $x50972 $x50975)))
 (let (($x1567 (= (+ ?x448 A_3 (* (- 1.0) L_3) (* 2.0 C) L_5 B) 0.0)))
 (let (($x49431 (<= 0.0 (+ (* (- 1.0) A_1) C S_0 L_1))))
 (let (($x49439 (not $x49431)))
 (let (($x1375 (<= (+ A_3 (* (- 1.0) L_3) (* (- 1.0) S_4)) 0.0)))
 (let (($x54037 (or $x1375 $x1983 (<= (+ A_1 ?x584 (* 2.0 C) (* (- 1.0) S_4)) 0.0) $x49439)))
 (let (($x48614 (<= 0.0 (+ (* (- 1.0) A_4) A_1 ?x584 (* 3.0 C) L_4))))
 (let (($x1888 (<= (+ A_2 (* (- 1.0) L_2) C (* (- 1.0) S_4)) 0.0)))
 (let (($x53975 (or $x1375 $x1888 (<= (+ (* 3.0 C) (* (- 1.0) S_4) S_0) 0.0) $x49431)))
 (let (($x33477 (or $x1375 $x1888 (<= (+ (* 2.0 C) (* (- 1.0) S_4) S_1) 0.0))))
 (let ((?x545 (* (- 1.0) L_4)))
 (let ((?x1093 (* (- 4.0) C)))
 (let ((?x1232 (* (- 1.0) A_0)))
 (let (($x113497 (or $x96 $x50972 (<= 0.0 (+ A_5 (* (- 1.0) A_3) ?x532 (* (- 2.0) C) L_3)))))
 (let (($x51004 (not (<= 0.0 (+ L_4 ?x532)))))
 (let (($x342 (<= 0.0 (+ ?x448 A_3 (* (- 1.0) L_3) (* 2.0 C) L_4 B))))
 (let (($x3279 (<= (+ A_3 (* (- 3.0) C) (* (- 1.0) S_1) (* (- 1.0) L_3) ?x601) 0.0)))
 (let (($x1971 (<= (+ A_2 (* (- 1.0) L_2) (* (- 1.0) S_3)) 0.0)))
 (let (($x18369 (or $x1971 (<= (+ A_1 ?x584 C (* (- 1.0) S_3)) 0.0) (<= (+ (* 2.0 C) (* (- 1.0) S_3) S_0) 0.0))))
 (let (($x440 (<= 0.0 (+ (* (- 1.0) A_2) A_1 C ?x584 L_2 ?x601))))
 (let (($x437 (not $x440)))
 (let (($x384 (<= 0.0 (+ (* (- 1.0) A_3) A_1 (* 2.0 C) ?x584 L_3 ?x601))))
 (let (($x382 (not $x384)))
 (let (($x1160 (<= (+ A_1 (* (- 1.0) S_5) (* 3.0 C) ?x584 ?x601) 0.0)))
 (let (($x56 (= L_1 L_0)))
 (let (($x48688 (<= 0.0 (+ (* (- 1.0) A_4) A_1 (* 3.0 C) ?x584 L_4 ?x601))))
 (let (($x5360 (= (+ A_4 ?x448 C ?x545 L_5 B) 0.0)))
 (let (($x112535 (or $x96 $x384 $x440 (= (+ ?x448 A_1 ?x1074 ?x584 L_5) 0.0) (not (<= 0.0 (+ ?x448 A_1 ?x584 ?x1074 L_5))) $x48688)))
 (let (($x112634 (or $x56 (<= (+ (* (- 1.0) A_1) (* (- 3.0) C) S_4 L_1 B) 0.0))))
 (let (($x113216 (or $x440 (<= (+ A_1 (* 2.0 C) (* (- 1.0) S_4) ?x584 ?x601) 0.0) $x1375)))
 (let ((?x558 (* (- 1.0) L_3)))
 (let ((?x525 (* (- 1.0) C)))
 (let ((?x460 (* (- 1.0) A_2)))
 (let (($x49540 (<= 0.0 (+ A_3 ?x460 ?x525 L_2 ?x558 ?x601))))
 (let (($x7036 (= (+ (* (- 1.0) A_3) A_2 (* (- 1.0) L_2) C L_3 B) 0.0)))
 (let (($x49108 (<= 0.0 (+ A_3 (* (- 1.0) A_1) (* (- 2.0) C) L_1 ?x558 ?x601))))
 (let (($x76 (= L_3 L_2)))
 (let (($x49810 (or $x76 (<= (+ (* (- 1.0) A_3) (* 3.0 C) S_0 L_3 B) 0.0) $x49108 $x49540)))
 (let (($x116094 (or (= (+ (* (- 1.0) A_3) A_1 ?x584 (* 2.0 C) L_3 B) 0.0) (not $x49108))))
 (let (($x49763 (or $x76 (<= (+ (* (- 1.0) A_3) (* 2.0 C) S_1 L_3 B) 0.0) $x49540)))
 (let ((?x771 (+ L_2 ?x558)))
 (let (($x48506 (<= 0.0 ?x771)))
 (let (($x7139 (<= (+ A_2 (* (- 1.0) A_1) (* (- 1.0) L_2) ?x525 L_1 B) 0.0)))
 (let (($x114626 (or $x76 $x440 (<= 0.0 (+ A_3 (* (- 1.0) A_1) ?x558 (* (- 2.0) C) L_1)))))
 (let (($x114591 (or $x76 (<= (+ (* (- 1.0) A_3) S_5 (* (- 2.0) C) L_3 B) 0.0))))
 (let (($x48240 (<= 0.0 (+ A_4 (* (- 1.0) A_3) ?x525 L_3 ?x545 ?x601))))
 (let (($x48011 (<= 0.0 (+ A_4 ?x460 (* (- 2.0) C) L_2 ?x545 ?x601))))
 (let (($x2372 (<= (+ (* (- 1.0) A_4) A_1 (* 3.0 C) L_4 (* (- 1.0) L_0)) 0.0)))
 (let (($x1688 (not $x56)))
 (let (($x86 (= L_4 L_3)))
 (let (($x1571 (= (+ (* (- 1.0) A_4) A_3 ?x558 C L_4 B) 0.0)))
 (let ((?x861 (* 2.0 C)))
 (let ((?x571 (* (- 1.0) L_2)))
 (let ((?x452 (* (- 1.0) A_4)))
 (let (($x1995 (= (+ ?x452 A_2 ?x571 ?x861 L_4 B) 0.0)))
 (let (($x48472 (<= 0.0 (+ A_4 (* (- 1.0) A_1) (* (- 3.0) C) L_1 ?x545 ?x601))))
 (let (($x112830 (or (= (+ ?x452 A_1 ?x584 (* 3.0 C) L_4 B) 0.0) (not $x48472))))
 (let (($x49419 (or $x86 (<= (+ ?x452 (* 3.0 C) S_1 L_4 B) 0.0) $x48011 $x48240)))
 (let (($x1975 (<= (+ A_1 (* (- 1.0) S_2) ?x584) 0.0)))
 (let (($x116706 (or $x96 (= (+ A_4 ?x448 C ?x545 L_5) 0.0) (not (<= 0.0 (+ A_4 ?x448 C ?x545 L_5))))))
 (let (($x48730 (<= 0.0 (+ ?x452 A_3 C ?x558 L_4 ?x601))))
 (let (($x1559 (<= (+ A_3 ?x460 ?x558 ?x525 L_2 B) 0.0)))
 (let (($x1315 (not $x1559)))
 (let (($x66 (= L_2 L_1)))
 (let (($x116973 (or $x96 $x1559 $x5360 (not (<= 0.0 (+ ?x452 A_2 ?x861 ?x571 L_4 ?x601))))))
 (let (($x48735 (<= 0.0 (+ ?x452 A_2 ?x861 ?x571 L_4 ?x601))))
 (let (($x116406 (or $x96 $x1559 (= (+ ?x448 A_2 (* 3.0 C) ?x571 L_5) 0.0) (not (<= 0.0 (+ ?x448 A_2 ?x571 (* 3.0 C) L_5))) $x48735)))
 (let (($x113418 (or $x1559 (<= (+ A_2 (* (- 1.0) S_5) ?x861 ?x571 ?x601) 0.0) $x5319)))
 (let (($x3353 (<= (+ A_3 (* (- 1.0) S_4) ?x558 ?x601) 0.0)))
 (let (($x113808 (or (= (+ ?x460 A_1 ?x584 C L_2 B) 0.0) (not (<= 0.0 (+ A_2 (* (- 1.0) A_1) ?x525 L_1 ?x571 ?x601))))))
 (let (($x48521 (<= 0.0 (+ A_2 (* (- 1.0) A_1) ?x525 L_1 ?x571 ?x601))))
 (let (($x2417 (not $x76)))
 (let (($x48491 (or $x56 (<= 0.0 (+ (* (- 1.0) A_3) A_1 ?x861 ?x584 L_2)) $x2417)))
 (let (($x114151 (or $x56 (<= (+ (* (- 1.0) A_1) (* (- 2.0) C) S_3 L_1 B) 0.0))))
 (let (($x48420 (or $x56 $x86 $x384 $x440 (= (+ ?x452 A_1 (* 3.0 C) ?x584 L_4) 0.0))))
 (let (($x2341 (<= (+ A_4 (* (- 1.0) S_5) ?x545 ?x601) 0.0)))
 (let (($x1303 (<= (+ A_2 (* (- 1.0) S_3) ?x571 ?x601) 0.0)))
 (let (($x936 (<= (+ A_1 (* (- 1.0) S_2) ?x584 ?x601) 0.0)))
 (let (($x128 (>= S_1 S_0)))
 (let (($x131 (>= S_2 S_1)))
 (let (($x134 (>= S_3 S_2)))
 (let (($x137 (>= S_4 S_3)))
 (let (($x140 (>= S_5 S_4)))
 (let (($x142 (>= A_1 A_0)))
 (let (($x143 (>= A_2 A_1)))
 (let (($x144 (>= A_3 A_2)))
 (let (($x145 (>= A_4 A_3)))
 (let (($x146 (>= A_5 A_4)))
 (and $x146 $x145 $x144 $x143 $x142 $x140 $x137 $x134 $x131 $x128 (or $x56 (not (<= 0.0 (+ ?x584 L_0)))) (or $x66 (not (<= 0.0 (+ L_1 ?x571)))) (or $x56 (<= (+ (* (- 1.0) A_1) S_1 L_1 B) 0.0)) (or $x66 (<= (+ ?x460 S_2 L_2 B) 0.0)) (or $x66 (<= (+ ?x460 C S_1 L_2 B) 0.0)) (or $x76 $x1315) (or $x86 $x1315 $x1571) $x936 (or $x56 (<= (+ (* (- 1.0) A_1) C S_0 L_1 B) 0.0)) (or $x86 $x437 $x1995 $x48399) $x1303 (<= (+ A_1 ?x1232 ?x525 ?x584 ?x601 L_0) 0.0) (or $x56 (<= (+ (* (- 1.0) A_1) ?x525 S_2 L_1 B) 0.0)) (or $x56 $x1983) (or $x66 (= (+ ?x460 A_1 C ?x584 L_2) 0.0) $x1926) (or $x66 $x48399) (or $x440 (<= (+ A_1 C (* (- 1.0) S_3) ?x584 ?x601) 0.0)) (<= (+ A_1 (* (- 2.0) C) ?x1198 ?x584 ?x601) 0.0) (<= (+ A_1 ?x525 (* (- 1.0) S_1) ?x584 ?x601) 0.0) (or $x86 (not (<= 0.0 (+ L_3 ?x545)))) $x2341 (<= (+ A_4 ?x525 (* (- 1.0) S_4) ?x545 ?x601) 0.0) $x48420 (or $x86 $x382 $x440 $x48240) $x114151 $x48491 (or $x86 (<= (+ ?x452 S_5 ?x525 L_4 B) 0.0)) (or $x86 (<= (+ ?x452 S_4 L_4 B) 0.0)) (or $x76 (<= (+ (* (- 1.0) A_3) S_3 L_3 B) 0.0)) (<= (+ A_2 ?x525 (* (- 1.0) S_2) ?x571 ?x601) 0.0) (or $x86 (<= (+ ?x452 C S_3 L_4 B) 0.0)) (<= (+ A_2 (* (- 3.0) C) ?x1198 ?x571 ?x601) 0.0) (or $x66 (<= (+ ?x460 ?x861 S_0 L_2 B) 0.0) $x48521) $x113808 (or $x66 $x48196) $x3353 (<= (+ A_2 ?x1232 (* (- 2.0) C) ?x571 ?x601 L_0) 0.0) (or $x86 (= (+ ?x452 A_3 C ?x558 L_4) 0.0) $x48506) (or $x76 (not $x48506)) (or $x86 (<= (+ ?x452 A_3 C ?x571 L_4) 0.0) (not $x48506)) (or (not $x96) $x86 (<= (+ ?x452 A_5 ?x525) 0.0)) (or $x86 $x1559 (= (+ ?x452 A_2 ?x861 ?x571 L_4) 0.0) (not $x48196)) (or $x96 (not (<= 0.0 (+ A_4 ?x448 C ?x545 L_5 ?x601)))) (<= (+ A_2 (* (- 2.0) C) (* (- 1.0) S_1) ?x571 ?x601) 0.0) (or $x1375 (<= (+ A_2 C (* (- 1.0) S_4) ?x571 ?x601) 0.0)) (or $x66 (<= (+ ?x460 ?x525 S_3 L_2 B) 0.0)) (or $x96 $x1315 $x1567 $x48303) (or $x66 (<= (+ ?x460 (* (- 2.0) C) S_4 L_2 B) 0.0)) (or $x76 (<= 0.0 (+ ?x448 A_3 ?x558 ?x861 L_5))) (or $x5319 (not $x48730)) (or $x96 $x5360 (not $x48730)) (or (<= (+ A_3 (* (- 1.0) S_5) C ?x558 ?x601) 0.0) $x48730) (or $x76 (= (+ (* (- 1.0) A_3) A_2 C ?x571 L_3) 0.0) $x48398) (or $x66 (<= 0.0 (+ ?x448 A_2 ?x571 (* 3.0 C) L_5))) $x113418 $x116406 $x116973 (or $x1309 $x1315 $x5319) (or $x66 (<= (+ ?x460 S_5 (* (- 3.0) C) L_2 B) 0.0)) (or $x96 $x1315 (<= (+ ?x452 A_3 C ?x571 L_4) 0.0) $x5360) (or $x96 $x1315 $x1567 (not (= (+ ?x452 A_3 C ?x558 L_4) 0.0))) (or (<= (+ A_1 C (* (- 1.0) S_3) ?x584 ?x601) 0.0) $x1971) (or $x86 (<= 0.0 (+ A_4 ?x448 C ?x545 L_5))) (<= (+ A_3 ?x525 (* (- 1.0) S_3) ?x558 ?x601) 0.0) (or $x96 (= (+ ?x448 A_3 ?x861 ?x558 L_5) 0.0) $x48506 $x48730) (or $x76 (<= (+ (* (- 1.0) A_3) ?x525 S_4 L_3 B) 0.0)) (or $x76 (<= (+ (* (- 1.0) A_3) C S_2 L_3 B) 0.0)) (or $x76 $x48303) (or $x86 $x437 $x48240 $x48398) $x116706 (<= (+ A_4 (* (- 2.0) C) (* (- 1.0) S_3) ?x545 ?x601) 0.0) (or $x1975 (<= (+ C (* (- 1.0) S_2) S_0) 0.0)) (or $x86 (<= (+ ?x452 ?x861 S_2 L_4 B) 0.0) $x48240) (<= (+ A_4 (* (- 3.0) C) (* (- 1.0) S_2) ?x545 ?x601) 0.0) $x49419 $x112830 (or $x86 (<= (+ ?x452 ?x1074 S_0 L_4 B) 0.0) $x48011 $x48240 $x48472) (or $x1995 (not $x48011)) (or $x1571 (not $x48240)) (or $x86 $x1688 $x2372 $x48011 $x48240) (<= (+ A_4 (* (- 5.0) C) ?x1198 ?x545 ?x601) 0.0) (<= (+ A_4 ?x1093 (* (- 1.0) S_1) ?x545 ?x601) 0.0) (<= (+ (* (- 2.0) C) S_1 ?x1198) 0.0) (<= (+ ?x1232 ?x525 S_1 L_0) 0.0) (<= (+ (* (- 3.0) C) S_2 ?x1198) 0.0) $x114591 (or $x56 $x48548) $x114626 (or (not $x7139) $x48506 $x49540) (<= (+ A_3 (* (- 2.0) C) (* (- 1.0) S_2) ?x558 ?x601) 0.0) $x49763 (<= (+ A_3 ?x1232 (* (- 3.0) C) ?x558 ?x601 L_0) 0.0) $x116094 (<= (+ A_3 ?x1093 ?x1198 ?x558 ?x601) 0.0) $x49810 (or $x7036 (not $x49540)) $x113216 (or $x437 $x1375 $x1888) (or $x56 (<= 0.0 (+ ?x448 A_1 ?x584 ?x1074 L_5))) $x112634 $x112535 (or $x96 $x384 $x440 $x5360 (not $x48688)) (or $x96 $x382 $x440 $x1567 $x48303) (or $x96 $x382 $x440 $x5360 $x48316) (or $x437 $x1309 $x5319 $x48398) (or $x96 $x437 $x7407 $x48196 $x48399) (or $x96 $x437 $x5360 (not $x48196) $x48399) (or $x96 $x437 $x1567 $x48303 $x48398) (or $x96 $x437 $x5360 $x48316 $x48398) (or $x384 $x440 $x1160 $x48688) (or $x56 $x48614) (or $x56 (<= (+ (* (- 1.0) A_1) S_5 ?x1093 L_1 B) 0.0)) (or $x440 $x1160 $x5319 $x48316) (or $x382 $x440 $x1309 $x5319) (or $x437 $x1914 $x5319 $x48399) (or $x96 (<= (+ ?x448 S_5 L_5 B) 0.0)) (or $x96 $x51004) (or $x1971 (<= (+ C (* (- 1.0) S_3) S_1) 0.0)) $x18369 (or $x96 (<= (+ ?x448 C S_4 L_5 B) 0.0)) (<= (+ A_5 (* (- 1.0) S_5) ?x525 ?x532 ?x601) 0.0) (or $x5360 $x50973) (<= (+ A_5 (* (- 2.0) C) (* (- 1.0) S_4) ?x532 ?x601) 0.0) (<= (+ (* (- 2.0) C) S_2 (* (- 1.0) S_1)) 0.0) (or $x1375 (<= (+ C (* (- 1.0) S_4) S_2) 0.0)) (<= (+ (* (- 1.0) A_1) L_1 ?x525 S_2) 0.0) $x3279 (or (<= (+ A_5 ?x17499 ?x1198 ?x545 ?x601) 0.0) $x51004) (or $x342 $x51004) (<= (+ ?x1232 (* (- 2.0) C) S_2 L_0) 0.0) (or $x96 (<= (+ ?x448 ?x861 S_3 L_5 B) 0.0) $x50972) $x113497 (or $x1375 $x1888 $x1926 $x49439) (<= (+ A_5 (* (- 3.0) C) (* (- 1.0) S_3) ?x532 ?x601) 0.0) (<= (+ (* (- 2.0) C) S_4 (* (- 1.0) S_3)) 0.0) (<= (+ A_4 ?x1232 ?x1093 ?x545 ?x601 L_0) 0.0) (<= (+ (* (- 3.0) C) S_3 (* (- 1.0) S_1)) 0.0) $x33477 $x53975 (or $x48303 $x50973) (or $x48614 $x50973) $x54037 (or $x1567 (not $x50975)) $x114217 (or $x48196 $x50973) (<= (+ (* (- 2.0) C) S_3 (* (- 1.0) S_2)) 0.0) (<= (+ ?x1093 S_3 ?x1198) 0.0) (<= (+ ?x1232 (* (- 3.0) C) S_3 L_0) 0.0) (or $x7407 (not $x50979)) (or (= (+ ?x448 A_1 ?x584 ?x1074 L_5 B) 0.0) (not $x50969)) (<= (+ A_5 ?x1093 (* (- 1.0) S_2) ?x532 ?x601) 0.0) $x114327 $x64791 (<= (+ A_5 (* (- 5.0) C) (* (- 1.0) S_1) ?x532 ?x601) 0.0) $x17540 (<= (+ A_5 ?x17499 ?x1198 ?x532 ?x601) 0.0) (or $x5319 (<= (+ (* (- 1.0) S_5) C S_3) 0.0)) (<= (+ ?x460 L_2 (* (- 2.0) C) S_4) 0.0) (<= (+ ?x460 S_5 L_2 (* (- 3.0) C)) 0.0) (<= (+ (* (- 5.0) C) S_4 ?x1198) 0.0) (<= (+ ?x1232 ?x1093 S_4 L_0) 0.0) (<= (+ ?x1232 S_5 (* (- 5.0) C) L_0) 0.0) (<= (+ S_5 (* (- 3.0) C) (* (- 1.0) S_3)) 0.0) (<= (+ ?x452 S_5 ?x525 L_4) 0.0) (<= (+ S_5 ?x1093 (* (- 1.0) S_2)) 0.0) (<= (+ (* (- 1.0) A_1) L_1 S_5 ?x1093) 0.0) (<= (+ S_5 ?x17499 ?x1198) 0.0) (<= (+ S_5 (* (- 5.0) C) (* (- 1.0) S_1)) 0.0) (or $x1914 $x3695 $x23206 $x48303 $x48548) $x47903 (or $x1309 $x3695 $x5319 $x23206 $x48398) (<= (+ (* (- 3.0) C) S_4 (* (- 1.0) S_2)) 0.0) (<= (+ ?x1093 S_4 (* (- 1.0) S_1)) 0.0) $x48299 (or $x1914 $x3695 $x5319 $x23206 $x48316) (or $x1309 $x1914 $x1926 $x5319 $x23206) $x666 $x842 $x39 (<= (+ (* (- 1.0) A_3) L_3 S_3) 0.0) (<= (+ ?x1232 S_0 L_0) 0.0) (<= (+ (* (- 1.0) A_1) S_1 L_1) 0.0) (<= (+ ?x448 S_5 L_5) 0.0) (<= (+ ?x452 L_4 S_4) 0.0) (<= (+ ?x460 L_2 S_2) 0.0) (<= (+ (* (- 1.0) A_3) L_3 ?x525 S_4) 0.0) (<= (+ (* (- 1.0) A_3) S_5 L_3 (* (- 2.0) C)) 0.0) (<= (+ ?x460 L_2 ?x525 S_3) 0.0) (<= (+ (* (- 1.0) A_1) L_1 (* (- 2.0) C) S_3) 0.0) (<= (+ (* (- 1.0) A_1) L_1 (* (- 3.0) C) S_4) 0.0) (<= (+ S_5 (* (- 2.0) C) (* (- 1.0) S_4)) 0.0))))))))))))))))))))))))))))))))))))))))))))))))))))))))))))))))))))))))))))))))))))))))))))))))))))))))))))))))))))))))))))))
(check-sat)
